
Log started (V12.7.1.0) Tue Sep 11 16:15:34 2018


Log started (V12.7.1.0) Tue Sep 11 16:19:22 2018


Problem 'lb_6_3.lp' read.
Read time = 0.02 sec. (0.05 ticks)
CPXPARAM_Read_APIEncoding                        "UTF-8"
Tried aggregator 1 time.
MIP Presolve eliminated 61 rows and 163 columns.
Reduced MIP has 198 rows, 379 columns, and 1152 nonzeros.
Reduced MIP has 378 binaries, 0 generals, 0 SOSs, and 0 indicators.
Presolve time = 0.01 sec. (0.63 ticks)
Found incumbent of value 146.000000 after 0.03 sec. (1.54 ticks)
Probing fixed 0 vars, tightened 1 bounds.
Probing time = 0.00 sec. (0.19 ticks)
Tried aggregator 1 time.
Reduced MIP has 198 rows, 379 columns, and 1152 nonzeros.
Reduced MIP has 378 binaries, 1 generals, 0 SOSs, and 0 indicators.
Presolve time = 0.00 sec. (1.00 ticks)
Probing time = 0.00 sec. (0.11 ticks)
Clique table members: 60.
MIP emphasis: balance optimality and feasibility.
MIP search method: dynamic search.
Parallel mode: deterministic, using up to 4 threads.
Root relaxation solution time = 0.00 sec. (2.10 ticks)

        Nodes                                         Cuts/
   Node  Left     Objective  IInf  Best Integer    Best Bound    ItCnt     Gap

*     0+    0                          146.0000        1.0000            99.32%
      0     0      126.6667    44      146.0000      126.6667      172   13.24%
*     0+    0                          127.0000      126.6667             0.26%
      0     0        cutoff            127.0000      126.6667      172    0.26%
Elapsed time = 0.06 sec. (6.02 ticks, tree = 0.01 MB, solutions = 2)

Root node processing (before b&c):
  Real time             =    0.06 sec. (6.04 ticks)
Parallel b&c, 4 threads:
  Real time             =    0.00 sec. (0.00 ticks)
  Sync time (average)   =    0.00 sec.
  Wait time (average)   =    0.00 sec.
                          ------------
Total (root+branch&cut) =    0.06 sec. (6.04 ticks)

Solution pool: 2 solutions saved.

MIP - Integer optimal solution:  Objective =  1.2700000000e+02
Solution time =    0.06 sec.  Iterations = 172  Nodes = 0
Deterministic time = 6.04 ticks  (94.41 ticks/sec)

CPXPARAM_Read_APIEncoding                        "UTF-8"

Root node processing (before b&c):
  Real time             =    0.00 sec. (0.01 ticks)
Parallel b&c, 4 threads:
  Real time             =    0.00 sec. (0.00 ticks)
  Sync time (average)   =    0.00 sec.
  Wait time (average)   =    0.00 sec.
                          ------------
Total (root+branch&cut) =    0.00 sec. (0.01 ticks)

Solution pool: 2 solutions saved.

MIP - Integer optimal solution:  Objective =  1.2700000000e+02
Solution time =    0.00 sec.  Iterations = 172  Nodes = 0
Deterministic time = 0.01 ticks  (5.76 ticks/sec)


Log started (V12.7.1.0) Tue Sep 11 16:37:11 2018


Problem 'lb_6_3.lp' read.
Read time = 0.02 sec. (0.05 ticks)
CPXPARAM_Read_APIEncoding                        "UTF-8"
Tried aggregator 1 time.
MIP Presolve eliminated 61 rows and 163 columns.
Reduced MIP has 198 rows, 379 columns, and 1152 nonzeros.
Reduced MIP has 378 binaries, 0 generals, 0 SOSs, and 0 indicators.
Presolve time = 0.01 sec. (0.63 ticks)
Found incumbent of value 146.000000 after 0.03 sec. (1.54 ticks)
Probing fixed 0 vars, tightened 1 bounds.
Probing time = 0.00 sec. (0.19 ticks)
Tried aggregator 1 time.
Reduced MIP has 198 rows, 379 columns, and 1152 nonzeros.
Reduced MIP has 378 binaries, 1 generals, 0 SOSs, and 0 indicators.
Presolve time = 0.00 sec. (1.00 ticks)
Probing time = 0.00 sec. (0.11 ticks)
Clique table members: 60.
MIP emphasis: balance optimality and feasibility.
MIP search method: dynamic search.
Parallel mode: deterministic, using up to 4 threads.
Root relaxation solution time = 0.00 sec. (2.10 ticks)

        Nodes                                         Cuts/
   Node  Left     Objective  IInf  Best Integer    Best Bound    ItCnt     Gap

*     0+    0                          146.0000        1.0000            99.32%
      0     0      126.6667    44      146.0000      126.6667      172   13.24%
*     0+    0                          127.0000      126.6667             0.26%
      0     0        cutoff            127.0000      126.6667      172    0.26%
Elapsed time = 0.05 sec. (6.02 ticks, tree = 0.01 MB, solutions = 2)

Root node processing (before b&c):
  Real time             =    0.05 sec. (6.04 ticks)
Parallel b&c, 4 threads:
  Real time             =    0.00 sec. (0.00 ticks)
  Sync time (average)   =    0.00 sec.
  Wait time (average)   =    0.00 sec.
                          ------------
Total (root+branch&cut) =    0.05 sec. (6.04 ticks)

Solution pool: 2 solutions saved.

MIP - Integer optimal solution:  Objective =  1.2700000000e+02
Solution time =    0.06 sec.  Iterations = 172  Nodes = 0
Deterministic time = 6.04 ticks  (100.79 ticks/sec)


Log started (V12.7.1.0) Tue Sep 11 16:37:44 2018


Problem 'lb_6_3.lp' read.
Read time = 0.00 sec. (0.05 ticks)
CPXPARAM_Read_APIEncoding                        "UTF-8"
Tried aggregator 1 time.
MIP Presolve eliminated 61 rows and 163 columns.
Reduced MIP has 198 rows, 379 columns, and 1152 nonzeros.
Reduced MIP has 378 binaries, 0 generals, 0 SOSs, and 0 indicators.
Presolve time = 0.00 sec. (0.63 ticks)
Found incumbent of value 146.000000 after 0.01 sec. (1.54 ticks)
Probing fixed 0 vars, tightened 1 bounds.
Probing time = 0.00 sec. (0.19 ticks)
Tried aggregator 1 time.
Reduced MIP has 198 rows, 379 columns, and 1152 nonzeros.
Reduced MIP has 378 binaries, 1 generals, 0 SOSs, and 0 indicators.
Presolve time = 0.00 sec. (1.00 ticks)
Probing time = 0.00 sec. (0.11 ticks)
Clique table members: 60.
MIP emphasis: balance optimality and feasibility.
MIP search method: dynamic search.
Parallel mode: deterministic, using up to 4 threads.
Root relaxation solution time = 0.00 sec. (2.10 ticks)

        Nodes                                         Cuts/
   Node  Left     Objective  IInf  Best Integer    Best Bound    ItCnt     Gap

*     0+    0                          146.0000        1.0000            99.32%
      0     0      126.6667    44      146.0000      126.6667      172   13.24%
*     0+    0                          127.0000      126.6667             0.26%
      0     0        cutoff            127.0000      126.6667      172    0.26%
Elapsed time = 0.02 sec. (6.02 ticks, tree = 0.01 MB, solutions = 2)

Root node processing (before b&c):
  Real time             =    0.02 sec. (6.04 ticks)
Parallel b&c, 4 threads:
  Real time             =    0.00 sec. (0.00 ticks)
  Sync time (average)   =    0.00 sec.
  Wait time (average)   =    0.00 sec.
                          ------------
Total (root+branch&cut) =    0.02 sec. (6.04 ticks)

Solution pool: 2 solutions saved.

MIP - Integer optimal solution:  Objective =  1.2700000000e+02
Solution time =    0.02 sec.  Iterations = 172  Nodes = 0
Deterministic time = 6.04 ticks  (277.74 ticks/sec)


Incumbent solution
Variable Name           Solution Value
MS                            7.000000
TS                          120.000000
f(0,1,0,1)                    1.000000
f(0,1,0,5)                    1.000000
f(0,1,2,1)                    1.000000
f(0,1,5,2)                    1.000000
f(0,2,0,3)                    1.000000
f(0,2,0,5)                    1.000000
f(0,2,3,2)                    1.000000
f(0,2,5,2)                    1.000000
f(0,3,0,1)                    1.000000
f(0,3,0,3)                    1.000000
f(0,3,1,4)                    1.000000
f(0,3,4,3)                    1.000000
f(0,4,0,3)                    1.000000
f(0,4,0,5)                    1.000000
f(0,4,3,4)                    1.000000
f(0,4,5,4)                    1.000000
f(0,5,0,3)                    1.000000
f(0,5,0,5)                    1.000000
f(0,5,2,5)                    1.000000
f(0,5,3,2)                    1.000000
f(1,0,1,0)                    1.000000
f(1,0,1,2)                    1.000000
f(1,0,2,3)                    1.000000
f(1,0,3,0)                    1.000000
f(1,2,1,2)                    1.000000
f(1,2,1,4)                    1.000000
f(1,2,4,5)                    1.000000
f(1,2,5,2)                    1.000000
f(1,3,0,3)                    1.000000
f(1,3,1,0)                    1.000000
f(1,3,1,4)                    1.000000
f(1,3,4,3)                    1.000000
f(1,4,0,5)                    1.000000
f(1,4,1,0)                    1.000000
f(1,4,1,4)                    1.000000
f(1,4,5,4)                    1.000000
f(1,5,0,5)                    1.000000
f(1,5,1,0)                    1.000000
f(1,5,1,2)                    1.000000
f(1,5,2,5)                    1.000000
f(2,0,1,0)                    1.000000
f(2,0,2,1)                    1.000000
f(2,0,2,3)                    1.000000
f(2,0,3,0)                    1.000000
f(2,1,0,1)                    1.000000
f(2,1,2,1)                    1.000000
f(2,1,2,5)                    1.000000
f(2,1,5,0)                    1.000000
f(2,3,2,3)                    1.000000
f(2,3,2,5)                    1.000000
f(2,3,4,3)                    1.000000
f(2,3,5,4)                    1.000000
f(2,4,1,4)                    1.000000
f(2,4,2,1)                    1.000000
f(2,4,2,3)                    1.000000
f(2,4,3,4)                    1.000000
f(2,5,2,3)                    1.000000
f(2,5,2,5)                    1.000000
f(2,5,3,4)                    1.000000
f(2,5,4,5)                    1.000000
f(3,0,1,0)                    1.000000
f(3,0,3,0)                    1.000000
f(3,0,3,4)                    1.000000
f(3,0,4,1)                    1.000000
f(3,1,0,1)                    1.000000
f(3,1,2,1)                    1.000000
f(3,1,3,0)                    1.000000
f(3,1,3,2)                    1.000000
f(3,2,1,2)                    1.000000
f(3,2,3,2)                    1.000000
f(3,2,3,4)                    1.000000
f(3,2,4,1)                    1.000000
f(3,4,0,1)                    1.000000
f(3,4,1,4)                    1.000000
f(3,4,3,0)                    1.000000
f(3,4,3,4)                    1.000000
f(3,5,0,5)                    1.000000
f(3,5,3,0)                    1.000000
f(3,5,3,4)                    1.000000
f(3,5,4,5)                    1.000000
f(4,0,1,0)                    1.000000
f(4,0,4,1)                    1.000000
f(4,0,4,5)                    1.000000
f(4,0,5,0)                    1.000000
f(4,1,2,1)                    1.000000
f(4,1,4,1)                    1.000000
f(4,1,4,5)                    1.000000
f(4,1,5,2)                    1.000000
f(4,2,1,2)                    1.000000
f(4,2,3,2)                    1.000000
f(4,2,4,1)                    1.000000
f(4,2,4,3)                    1.000000
f(4,3,0,3)                    1.000000
f(4,3,4,3)                    1.000000
f(4,3,4,5)                    1.000000
f(4,3,5,0)                    1.000000
f(4,5,1,2)                    1.000000
f(4,5,2,5)                    1.000000
f(4,5,4,1)                    1.000000
f(4,5,4,5)                    1.000000
f(5,0,3,0)                    1.000000
f(5,0,4,3)                    1.000000
f(5,0,5,0)                    1.000000
f(5,0,5,4)                    1.000000
f(5,1,0,1)                    1.000000
f(5,1,2,1)                    1.000000
f(5,1,5,0)                    1.000000
f(5,1,5,2)                    1.000000
f(5,2,3,2)                    1.000000
f(5,2,4,3)                    1.000000
f(5,2,5,2)                    1.000000
f(5,2,5,4)                    1.000000
f(5,3,0,3)                    1.000000
f(5,3,2,3)                    1.000000
f(5,3,5,0)                    1.000000
f(5,3,5,2)                    1.000000
f(5,4,0,1)                    1.000000
f(5,4,1,4)                    1.000000
f(5,4,5,0)                    1.000000
f(5,4,5,4)                    1.000000
All other variables in the range 1-542 are 0.
